(declare-fun bvlambda_31_ () (_ BitVec 4))
(declare-fun bvlambda_51_ ()Bool         )
(declare-fun bvlambda_54_ ()Bool         )
(declare-fun a164 () (Array (_ BitVec 1) (_ BitVec 5)))
(assert
(let (($e1 (_ bv0 1)))
(let (($e29 (_ bv18 13)))
(let (($e45 (_ bv18 5)))
(let (($e196         $e29              ))
(let (($e203 (concat bvlambda_31_ bvlambda_51_)))
(let (($e205 (store a164 $e1 $e203)))
(let (($e206 (store $e205 bvlambda_51_ $e45 )))
(let (($e326                bvlambda_31_              ))
(let (($e327         $e326              ))
(let (($e328         $e327              ))
(let (($e329         $e328              ))
(let (($e333         bvlambda_31_              ))
(let (($e334         $e333              ))
(let (($e615        (bvnot bvlambda_51_)               ))
(let (($e630 (select $e206 true       )))
(let (($e633 (   extract      $e630)))
(let (($e651 (concat bvlambda_31_ $e615)))
(let (($e652 (store a164 bvlambda_51_ $e651)))
(let (($e653 (select $e652 bvlambda_54_)))
(let (($e658 (   extract      $e653)))
                  (= $e658 $e633)
                                                                                                                                                                                                                                                                                                                                                                                                                                                                                                                                                                                                                                                                                                                                                                                                                                                                                                                                                                                                                                                                                                                                                                                                                                                                                                                                                                                                                                                                                                                                               )    )))                 )  )              )                                                                                                                                                                                                                                                                                        ))   ))))                                                                                                                       )) )      )                                                                                    )               )                           ))
